<?xml version = "1.0" standalone="yes"?>
<!-- This file has been generated by DOcplex version 2.23.222  -->
<CPLEXSolution version="1.0">
 <header
   problemName="CVRP"
   objectiveValue="8022.69"
  />
 <variables>
  <variable name="x_0_1" index="0" value="1.00000"/>
  <variable name="x_0_2" index="1" value="1.00000"/>
  <variable name="x_0_8" index="7" value="1.00000"/>
  <variable name="x_0_9" index="8" value="1.00000"/>
  <variable name="x_0_10" index="9" value="1.00000"/>
  <variable name="x_0_11" index="10" value="1.00000"/>
  <variable name="x_0_12" index="11" value="1.00000"/>
  <variable name="x_0_15" index="14" value="1.00000"/>
  <variable name="x_0_17" index="16" value="1.00000"/>
  <variable name="x_1_0" index="18" value="1.00000"/>
  <variable name="x_2_14" index="49" value="1.00000"/>
  <variable name="x_3_18" index="71" value="1.00000"/>
  <variable name="x_4_0" index="72" value="1.00000"/>
  <variable name="x_5_16" index="105" value="1.00000"/>
  <variable name="x_6_5" index="113" value="1.00000"/>
  <variable name="x_7_4" index="130" value="1.00000"/>
  <variable name="x_8_0" index="144" value="1.00000"/>
  <variable name="x_9_0" index="162" value="1.00000"/>
  <variable name="x_10_7" index="187" value="1.00000"/>
  <variable name="x_11_3" index="201" value="1.00000"/>
  <variable name="x_12_6" index="222" value="1.00000"/>
  <variable name="x_13_0" index="234" value="1.00000"/>
  <variable name="x_14_13" index="265" value="1.00000"/>
  <variable name="x_15_0" index="270" value="1.00000"/>
  <variable name="x_16_0" index="288" value="1.00000"/>
  <variable name="x_17_0" index="306" value="1.00000"/>
  <variable name="x_18_0" index="324" value="1.00000"/>
  <variable name="u_1" index="342" value="21.00000"/>
  <variable name="u_2" index="343" value="3.00000"/>
  <variable name="u_3" index="344" value="17.00000"/>
  <variable name="u_4" index="345" value="21.00000"/>
  <variable name="u_5" index="346" value="9.00000"/>
  <variable name="u_6" index="347" value="8.00000"/>
  <variable name="u_7" index="348" value="4.00000"/>
  <variable name="u_8" index="349" value="18.00000"/>
  <variable name="u_9" index="350" value="21.00000"/>
  <variable name="u_10" index="351" value="1.00000"/>
  <variable name="u_11" index="352" value="11.00000"/>
  <variable name="u_12" index="353" value="4.00000"/>
  <variable name="u_13" index="354" value="21.00000"/>
  <variable name="u_14" index="355" value="18.00000"/>
  <variable name="u_15" index="356" value="19.00000"/>
  <variable name="u_16" index="357" value="17.00000"/>
  <variable name="u_17" index="358" value="16.00000"/>
  <variable name="u_18" index="359" value="21.00000"/>
 </variables>
</CPLEXSolution>
